RAW/CMTT/fspd-long/CMT7T.vrp_seed-4.out
903.0474612	2.838	294.284
