RAW/CMTT/fspd-long/CMT7T.vrp_seed-4.sol
Route #1: 2 28 61 69 21 74 75
Route #2: 63 23 56 41 43 33 6
Route #3: 27 15 57 13 54 52 34 67
Route #4: 4 45 29 5 47 48 30
Route #5: 7 35 14 59 19 8 46
Route #6: 36 71 60 70 20 37
Route #7: 9 25 55 18 50 32
Route #8: 73 1 42 64 22 62 68
Route #9: 53 11 66 65 38
Route #10: 12 72 39 31 10 58 26
Route #11: 17 40 44 3 24 49 16 51
Cost 903.047461